(set-logic ALL)
(declare-const GEN1 Int)
(declare-const GEN2 Int)
(declare-const GEN3 Int)
(declare-const GEN4 Int)
(declare-const GEN5 Int)
(declare-const GEN6 Int)
(declare-const BAV7 Bool)
(declare-const BAV8 Bool)
(declare-const BAV9 Bool)
(declare-const BAV10 Bool)
(declare-const BAV11 Bool)
(declare-const BAV12 Bool)
(declare-fun f (Int) Int)
(declare-fun g (Int) Int)
(declare-fun h (Int) Int)
(assert (forall ((x Int)) (or (= (f x) (h x)) (= (f x) (g x)))))
(assert (not (= (f GEN1) (h GEN2))))
(assert (not (= (f GEN3) (g GEN4))))
(assert (= (f GEN5) (g GEN6)))
(assert (= BAV7 (forall ((x Int)) (or (= (f x) (h x)) (= (f x) (g x))))))
(assert (= BAV8 (forall ((x Int)) (= (f x) (h x)))))
(assert (= BAV9 (forall ((x Int)) (= (f x) (g x)))))
(assert (= BAV10 (= (f GEN1) (h GEN2))))
(assert (= BAV11 (= (f GEN3) (g GEN4))))
(assert (= BAV12 (= (f GEN5) (g GEN6))))
(check-sat)